155498
33,82,56,79,88,73,101,23,75,57,0,27,26,9,58,65,43,86,42,78,14,3,102,34,50,81,71,1,72,47,84,36,48,17,74,62,31,6,83,52,44,24,61,21,85,45,76,20,16,89,63,15,19,55,39,12,51,4,54,29,28,11,92,22,91,8,98,99,32,38,35,70,100,104,37,103,10,40,66,94,53,69,93,2,77,95,59,90,60,46,13,67,41,105,7,96,64,30,97,87,68,5,80,18,49,25,33